     Program PWSCF v.6.7MaX starts on 11Nov2022 at 21:56:15

     Waiting for input...
     Reading input from standard input
     Message from routine read_cards :
     DEPRECATED: no units specified in ATOMIC_POSITIONS card
     Message from routine read_cards :
     ATOMIC_POSITIONS: units set to alat

     Current dimensions of program PWSCF are:
     Max number of different atomic species (ntypx) = 10
     Max number of k-points (npk) =  40000
     Max angular momentum in pseudopotentials (lmaxx) =  3
     file Na.pbe-spn-kjpaw_psl.1.0.0.UPF: wavefunction(s)  2P renormalized
     file Cl.pbe-n-kjpaw_psl.1.0.0.UPF: wavefunction(s)  3S 3P renormalized

     Subspace diagonalization in iterative solution of the eigenvalue problem:
     a serial algorithm will be used

     bravais-lattice index     =            2
     lattice parameter (alat)  =      11.2600  a.u.
     unit-cell volume          =     356.9071 (a.u.)^3
     number of atoms/cell      =            2
     number of atomic types    =            2
     number of electrons       =        16.00
     number of Kohn-Sham states=            8
     kinetic-energy cutoff     =      60.0000  Ry
     charge density cutoff     =     244.0000  Ry
     scf convergence threshold =      1.0E-08
     mixing beta               =       0.7000
     number of iterations used =            8  plain     mixing
     energy convergence thresh.=      1.0E-04
     force convergence thresh. =      1.0E-03
     press convergence thresh. =      5.0E-01
     Exchange-correlation= SLA  PW   PBX  PBC
                           (   1   4   3   4   0   0   0)
     nstep                     =           50

     celldm(1)=  11.260000  celldm(2)=   0.000000  celldm(3)=   0.000000
     celldm(4)=   0.000000  celldm(5)=   0.000000  celldm(6)=   0.000000

     crystal axes: (cart. coord. in units of alat)
               a(1) = (  -0.500000   0.000000   0.500000 )
               a(2) = (   0.000000   0.500000   0.500000 )
               a(3) = (  -0.500000   0.500000   0.000000 )

     reciprocal axes: (cart. coord. in units 2 pi/alat)
               b(1) = ( -1.000000 -1.000000  1.000000 )
               b(2) = (  1.000000  1.000000  1.000000 )
               b(3) = ( -1.000000  1.000000 -1.000000 )

     PseudoPot. # 1 for Na read from file:
     ../../pseudopotentials/Na.pbe-spn-kjpaw_psl.1.0.0.UPF
     MD5 check sum: 2d3bf706d6c1b56787a12f8ec1fa0108
     Pseudo is Projector augmented-wave + core cor, Zval =  9.0
     Generated using &quot;atomic&quot; code by A. Dal Corso  v.6.3
     Shape of augmentation charge: PSQ
     Using radial grid of 1121 points,  4 beta functions with:
                l(1) =   0
                l(2) =   0
                l(3) =   1
                l(4) =   1
     Q(r) pseudized with 0 coefficients

     PseudoPot. # 2 for Cl read from file:
     ../../pseudopotentials/Cl.pbe-n-kjpaw_psl.1.0.0.UPF
     MD5 check sum: 742572be94a3d2fc30b29275f2c5bbd2
     Pseudo is Projector augmented-wave + core cor, Zval =  7.0
     Generated using &quot;atomic&quot; code by A. Dal Corso  v.6.3
     Shape of augmentation charge: PSQ
     Using radial grid of 1157 points,  6 beta functions with:
                l(1) =   0
                l(2) =   0
                l(3) =   1
                l(4) =   1
                l(5) =   2
                l(6) =   2
     Q(r) pseudized with 0 coefficients

     atomic species   valence    mass     pseudopotential
        Na             9.00    22.98977     Na( 1.00)
        Cl             7.00    35.45320     Cl( 1.00)

     24 Sym. Ops. (no inversion) found

   Cartesian axes

     site n.     atom                  positions (alat units)
         1           Na  tau(   1) = (   0.0000000   0.0000000   0.0000000  )
         2           Cl  tau(   2) = (   0.2500000   0.2500000   0.2500000  )

     number of k points=    20
                       cart. coord. in units 2pi/alat
        k(    1) = (   0.0000000   0.0000000   0.0000000), wk =   0.0058309
        k(    2) = (  -0.1428571   0.1428571  -0.1428571), wk =   0.0466472
        k(    3) = (  -0.2857143   0.2857143  -0.2857143), wk =   0.0466472
        k(    4) = (  -0.4285714   0.4285714  -0.4285714), wk =   0.0466472
        k(    5) = (   0.0000000   0.2857143   0.0000000), wk =   0.0349854
        k(    6) = (  -0.1428571   0.4285714  -0.1428571), wk =   0.1399417
        k(    7) = (  -0.2857143   0.5714286  -0.2857143), wk =   0.1399417
        k(    8) = (   0.5714286  -0.2857143   0.5714286), wk =   0.1399417
        k(    9) = (   0.4285714  -0.1428571   0.4285714), wk =   0.1399417
        k(   10) = (   0.2857143  -0.0000000   0.2857143), wk =   0.0699708
        k(   11) = (   0.0000000   0.5714286   0.0000000), wk =   0.0349854
        k(   12) = (  -0.1428571   0.7142857  -0.1428571), wk =   0.1399417
        k(   13) = (   0.7142857  -0.1428571   0.7142857), wk =   0.1399417
        k(   14) = (   0.5714286   0.0000000   0.5714286), wk =   0.0699708
        k(   15) = (   0.0000000   0.8571429   0.0000000), wk =   0.0349854
        k(   16) = (   0.8571429  -0.0000000   0.8571429), wk =   0.0699708
        k(   17) = (  -0.2857143   0.5714286   0.0000000), wk =   0.1399417
        k(   18) = (   0.5714286  -0.2857143   0.8571429), wk =   0.2798834
        k(   19) = (   0.7142857  -0.1428571   1.0000000), wk =   0.1399417
        k(   20) = (   0.5714286   0.0000000   0.8571429), wk =   0.1399417

     Check: negative core charge=   -0.000006

     Initial potential from superposition of free atoms

     starting charge   15.99370, renormalised to   16.00000
     Starting wfcs are    9 randomized atomic wfcs
     Checking if some PAW data can be deallocated...

     Self-consistent Calculation

     iteration #  1     ecut=    60.00 Ry     beta= 0.70
     Davidson diagonalization with overlap
     ethr =  1.00E-02,  avg # of iterations =  1.0

     Threshold (ethr) on eigenvalues was too large:
     Diagonalizing with lowered threshold

     Davidson diagonalization with overlap
     ethr =  5.63E-04,  avg # of iterations =  2.0

     total energy              =    -188.79960093 Ry
     estimated scf accuracy    <       0.07736453 Ry

[...]

     End of self-consistent calculation

          k = 0.0000 0.0000 0.0000 (  2741 PWs)   bands (ev):

   -48.9561 -20.8814 -20.8814 -20.8814 -12.7664  -0.5159  -0.5159  -0.5159

          k =-0.1429 0.1429-0.1429 (  2785 PWs)   bands (ev):

[...]

     highest occupied level (ev):    -0.5159

!    total energy              =    -188.82876777 Ry

     total all-electron energy =     -1248.115783 Ry
     estimated scf accuracy    <          2.5E-09 Ry

     The total energy is the sum of the following terms:
     one-electron contribution =     -93.35347299 Ry
     hartree contribution      =      52.73835671 Ry
     xc contribution           =     -25.70323379 Ry
     ewald contribution        =     -61.90728259 Ry
     one-center paw contrib.   =     -60.60313511 Ry

     convergence has been achieved in   9 iterations

     Forces acting on atoms (cartesian axes, Ry/au):

     atom    1 type  1   force =     0.00000000    0.00000000    0.00000000
     atom    2 type  2   force =     0.00000000    0.00000000    0.00000000

     Total force =     0.000000     Total SCF correction =     0.000000

     Computing stress (Cartesian axis) and pressure

          total   stress  (Ry/bohr**3)                   (kbar)     P=       27.95
   0.00019000   0.00000000   0.00000000           27.95        0.00        0.00
   0.00000000   0.00019000  -0.00000000            0.00       27.95       -0.00
   0.00000000  -0.00000000   0.00019000            0.00       -0.00       27.95

     BFGS Geometry Optimization
     Energy error            =      0.0E+00
     Gradient error          =      0.0E+00
     Cell gradient error     =      1.9E-04

     number of scf cycles    =   1
     number of bfgs steps    =   0

     enthalpy new            =    -188.8287677722 Ry

     new trust radius        =       0.0179475754 bohr
ibrav =      2
 celldm(1) =     11.31348557
Input lattice vectors:
    -0.50237503    -0.00000000     0.50237503
     0.00000000     0.50237503     0.50237503
    -0.50237503     0.50237503    -0.00000000
New lattice vectors in INITIAL alat:
    -0.50237503     0.00000000     0.50237503
     0.00000000     0.50237503     0.50237503
    -0.50237503     0.50237503     0.00000000
New lattice vectors in NEW alat (for information only):
    -0.50000000     0.00000000     0.50000000
     0.00000000     0.50000000     0.50000000
    -0.50000000     0.50000000     0.00000000
Discrepancy in bohr =     0.000000    0.000000    0.000000
     new conv_thr            =       0.0000000100 Ry

     new unit-cell volume =    362.01727 a.u.^3 (    53.64542 Ang^3 )
     density =      1.80904 g/cm^3

CELL_PARAMETERS (alat= 11.26000000)
  -0.502375025   0.000000000   0.502375025
   0.000000000   0.502375025   0.502375025
  -0.502375025   0.502375025   0.000000000

ATOMIC_POSITIONS (alat)
Na            0.0000000000        0.0000000000        0.0000000000
Cl            0.2511875126        0.2511875126        0.2511875126

     Writing output data file ./tmp/NaCl.save/
     NEW-OLD atomic charge density approx. for the potential

     Check: negative core charge=   -0.000006
     extrapolated charge   16.22576, renormalised to   16.00000

[...]

     Energy error            =      9.0E-04
     Gradient error          =      3.9E-31
     Cell gradient error     =      1.6E-04

[...]

     enthalpy old            =    -188.8287677722 Ry
     enthalpy new            =    -188.8296665836 Ry

     CASE: enthalpy_new < enthalpy_old

     WARNING: bfgs curvature condition failed, Theta= 0.933
     new trust radius        =       0.0197891659 bohr
ibrav =      2
 celldm(1) =     11.37231969
Input lattice vectors:
    -0.50498755    -0.00000000     0.50498755
    -0.00000000     0.50498755     0.50498755
    -0.50498755     0.50498755    -0.00000000
New lattice vectors in INITIAL alat:
    -0.50498755     0.00000000     0.50498755
     0.00000000     0.50498755     0.50498755
    -0.50498755     0.50498755     0.00000000
New lattice vectors in NEW alat (for information only):
    -0.50000000     0.00000000     0.50000000
     0.00000000     0.50000000     0.50000000
    -0.50000000     0.50000000     0.00000000
Discrepancy in bohr =     0.000000    0.000000    0.000000
     new conv_thr            =            1.0E-10 Ry

[...]

     number of scf cycles    =   6
     number of bfgs steps    =   5

     enthalpy old            =    -188.8324393375 Ry
     enthalpy new            =    -188.8328423598 Ry

     CASE: enthalpy_new < enthalpy_old

     new trust radius        =       0.0104105907 bohr
ibrav =      2
 celldm(1) =     11.76603898
Input lattice vectors:
    -0.52247065    -0.00000000     0.52247065
    -0.00000000     0.52247065     0.52247065
    -0.52247065     0.52247065    -0.00000000
New lattice vectors in INITIAL alat:
    -0.52247065     0.00000000     0.52247065
     0.00000000     0.52247065     0.52247065
    -0.52247065     0.52247065     0.00000000
New lattice vectors in NEW alat (for information only):
    -0.50000000     0.00000000     0.50000000
     0.00000000     0.50000000     0.50000000
    -0.50000000     0.50000000     0.00000000
Discrepancy in bohr =     0.000000    0.000000    0.000000
     new conv_thr            =            1.0E-10 Ry

     new unit-cell volume =    407.22165 a.u.^3 (    60.34402 Ang^3 )
     density =      1.60823 g/cm^3

[...]

ATOMIC_POSITIONS (alat)
Na            0.0000000000       -0.0000000000        0.0000000000
Cl            0.2612353238        0.2612353238        0.2612353238

     Writing output data file ./tmp/NaCl.save/
     NEW-OLD atomic charge density approx. for the potential

     Check: negative core charge=   -0.000003
     extrapolated charge   16.12361, renormalised to   16.00000

[...]

     Energy error            =      1.5E-05
     Gradient error          =      5.0E-31
     Cell gradient error     =      1.0E-06

ibrav =      2
 celldm(1) =     11.76603898
Input lattice vectors:
    -0.52247065     0.00000000     0.52247065
     0.00000000     0.52247065     0.52247065
    -0.52247065     0.52247065     0.00000000
New lattice vectors in INITIAL alat:
    -0.52247065     0.00000000     0.52247065
     0.00000000     0.52247065     0.52247065
    -0.52247065     0.52247065     0.00000000
New lattice vectors in NEW alat (for information only):
    -0.50000000     0.00000000     0.50000000
     0.00000000     0.50000000     0.50000000
    -0.50000000     0.50000000     0.00000000
Discrepancy in bohr =     0.000000    0.000000    0.000000

     bfgs converged in   7 scf cycles and   6 bfgs steps
     (criteria: energy <  1.0E-04 Ry, force <  1.0E-03Ry/Bohr, cell <  5.0E-01kbar)

     End of BFGS Geometry Optimization

     Final enthalpy =    -188.8328572558 Ry

     File ./tmp/NaCl.bfgs deleted, as requested
Begin final coordinates
     new unit-cell volume =    407.22165 a.u.^3 (    60.34402 Ang^3 )
     density =      1.60823 g/cm^3

CELL_PARAMETERS (alat= 11.26000000)
  -0.522470648   0.000000000   0.522470648
   0.000000000   0.522470648   0.522470648
  -0.522470648   0.522470648   0.000000000

ATOMIC_POSITIONS (alat)
Na            0.0000000000       -0.0000000000        0.0000000000
Cl            0.2612353238        0.2612353238        0.2612353238
End final coordinates

     Writing output data file ./tmp/NaCl.save/

     Final scf calculation at the relaxed structure.
     The G-vectors are recalculated for the final unit cell
     Results may differ from those at the preceding step.

     bravais-lattice index     =            2
     lattice parameter (alat)  =      11.2600  a.u.
     unit-cell volume          =     407.2216 (a.u.)^3
     number of atoms/cell      =            2
     number of atomic types    =            2
     number of electrons       =        16.00
     number of Kohn-Sham states=            8
     kinetic-energy cutoff     =      60.0000  Ry
     charge density cutoff     =     244.0000  Ry
     scf convergence threshold =      1.0E-10
     mixing beta               =       0.7000
     number of iterations used =            8  plain     mixing
     press convergence thresh. =      5.0E-01
     Exchange-correlation= SLA  PW   PBX  PBC
                           (   1   4   3   4   0   0   0)

     celldm(1)=  11.260000  celldm(2)=   0.000000  celldm(3)=   0.000000
     celldm(4)=   0.000000  celldm(5)=   0.000000  celldm(6)=   0.000000

     crystal axes: (cart. coord. in units of alat)
               a(1) = (  -0.522471   0.000000   0.522471 )
               a(2) = (   0.000000   0.522471   0.522471 )
               a(3) = (  -0.522471   0.522471   0.000000 )

     reciprocal axes: (cart. coord. in units 2 pi/alat)
               b(1) = ( -0.956992 -0.956992  0.956992 )
               b(2) = (  0.956992  0.956992  0.956992 )
               b(3) = ( -0.956992  0.956992 -0.956992 )

     PseudoPot. # 1 for Na read from file:
     ../../pseudopotentials/Na.pbe-spn-kjpaw_psl.1.0.0.UPF
     MD5 check sum: 2d3bf706d6c1b56787a12f8ec1fa0108
     Pseudo is Projector augmented-wave + core cor, Zval =  9.0
     Generated using &quot;atomic&quot; code by A. Dal Corso  v.6.3
     Shape of augmentation charge: PSQ
     Using radial grid of 1121 points,  4 beta functions with:
                l(1) =   0
                l(2) =   0
                l(3) =   1
                l(4) =   1
     Q(r) pseudized with 0 coefficients

     PseudoPot. # 2 for Cl read from file:
     ../../pseudopotentials/Cl.pbe-n-kjpaw_psl.1.0.0.UPF
     MD5 check sum: 742572be94a3d2fc30b29275f2c5bbd2
     Pseudo is Projector augmented-wave + core cor, Zval =  7.0
     Generated using &quot;atomic&quot; code by A. Dal Corso  v.6.3
     Shape of augmentation charge: PSQ
     Using radial grid of 1157 points,  6 beta functions with:
                l(1) =   0
                l(2) =   0
                l(3) =   1
                l(4) =   1
                l(5) =   2
                l(6) =   2
     Q(r) pseudized with 0 coefficients

     atomic species   valence    mass     pseudopotential
        Na             9.00    22.98977     Na( 1.00)
        Cl             7.00    35.45320     Cl( 1.00)

     24 Sym. Ops. (no inversion) found

   Cartesian axes

     site n.     atom                  positions (alat units)
         1           Na  tau(   1) = (   0.0000000  -0.0000000   0.0000000  )
         2           Cl  tau(   2) = (   0.2612353   0.2612353   0.2612353  )

     number of k points=    20
                       cart. coord. in units 2pi/alat
        k(    1) = (   0.0000000   0.0000000   0.0000000), wk =   0.0058309
        k(    2) = (  -0.1367131   0.1367131  -0.1367131), wk =   0.0466472
        k(    3) = (  -0.2734262   0.2734262  -0.2734262), wk =   0.0466472
        k(    4) = (  -0.4101392   0.4101392  -0.4101392), wk =   0.0466472
        k(    5) = (   0.0000000   0.2734262   0.0000000), wk =   0.0349854
        k(    6) = (  -0.1367131   0.4101392  -0.1367131), wk =   0.1399417
        k(    7) = (  -0.2734262   0.5468523  -0.2734262), wk =   0.1399417
        k(    8) = (   0.5468523  -0.2734262   0.5468523), wk =   0.1399417
        k(    9) = (   0.4101392  -0.1367131   0.4101392), wk =   0.1399417
        k(   10) = (   0.2734262  -0.0000000   0.2734262), wk =   0.0699708
        k(   11) = (   0.0000000   0.5468523   0.0000000), wk =   0.0349854
        k(   12) = (  -0.1367131   0.6835654  -0.1367131), wk =   0.1399417
        k(   13) = (   0.6835654  -0.1367131   0.6835654), wk =   0.1399417
        k(   14) = (   0.5468523   0.0000000   0.5468523), wk =   0.0699708
        k(   15) = (   0.0000000   0.8202785   0.0000000), wk =   0.0349854
        k(   16) = (   0.8202785   0.0000000   0.8202785), wk =   0.0699708
        k(   17) = (  -0.2734262   0.5468523  -0.0000000), wk =   0.1399417
        k(   18) = (   0.5468523  -0.2734262   0.8202785), wk =   0.2798834
        k(   19) = (   0.6835654  -0.1367131   0.9569916), wk =   0.1399417
        k(   20) = (   0.5468523  -0.0000000   0.8202785), wk =   0.1399417

     Check: negative core charge=   -0.000005

     Initial potential from superposition of free atoms

     starting charge   15.99370, renormalised to   16.00000
     Starting wfcs are    9 randomized atomic wfcs
     Checking if some PAW data can be deallocated...

     Self-consistent Calculation

[...]

     iteration #  9     ecut=    60.00 Ry     beta= 0.70
     Davidson diagonalization with overlap
     c_bands:  1 eigenvalues not converged
     ethr =  7.07E-12,  avg # of iterations = 13.9

[...]

     total energy              =    -188.83479384 Ry
     estimated scf accuracy    <          1.2E-09 Ry

     iteration # 11     ecut=    60.00 Ry     beta= 0.70
     Davidson diagonalization with overlap
     ethr =  7.07E-12,  avg # of iterations =  3.0

     End of self-consistent calculation

[...]

          k =-0.2734 0.5469-0.0000 (  3190 PWs)   bands (ev):

[...]

          k = 0.5469-0.0000 0.8203 (  3201 PWs)   bands (ev):

   -49.9838 -21.9149 -21.9081 -21.9060 -13.1532  -1.9173  -1.8326  -1.5056

     highest occupied level (ev):    -1.2335

!    total energy              =    -188.83479384 Ry

     total all-electron energy =     -1248.121809 Ry
     estimated scf accuracy    <          1.0E-11 Ry

     The total energy is the sum of the following terms:
     one-electron contribution =     -97.75624475 Ry
     hartree contribution      =      54.42127604 Ry
     xc contribution           =     -25.65628569 Ry
     ewald contribution        =     -59.24474693 Ry
     one-center paw contrib.   =     -60.59879251 Ry

     convergence has been achieved in  11 iterations

     Forces acting on atoms (cartesian axes, Ry/au):

     atom    1 type  1   force =     0.00000000   -0.00000000    0.00000000
     atom    2 type  2   force =    -0.00000000   -0.00000000    0.00000000

     Total force =     0.000000     Total SCF correction =     0.000000

     Computing stress (Cartesian axis) and pressure

          total   stress  (Ry/bohr**3)                   (kbar)     P=       -3.10
  -0.00002106   0.00000000   0.00000000           -3.10        0.00        0.00
   0.00000000  -0.00002106   0.00000000            0.00       -3.10        0.00
   0.00000000   0.00000000  -0.00002106            0.00        0.00       -3.10

     Writing output data file ./tmp/NaCl.save/

     General routines

     Parallel routines

   This run was terminated on:  22: 2:59  11Nov2022

   JOB DONE.