     Program PWSCF v.6.7MaX starts on 12Nov2022 at 14:37:55

     Waiting for input...
     Reading input from standard input
     Message from routine read_cards :
     DEPRECATED: no units specified in ATOMIC_POSITIONS card
     Message from routine read_cards :
     ATOMIC_POSITIONS: units set to alat

     Current dimensions of program PWSCF are:
     Max number of different atomic species (ntypx) = 10
     Max number of k-points (npk) =  40000
     Max angular momentum in pseudopotentials (lmaxx) =  3
     file Na.pbe-spn-kjpaw_psl.1.0.0.UPF: wavefunction(s)  2P renormalized
     file Cl.pbe-n-kjpaw_psl.1.0.0.UPF: wavefunction(s)  3S 3P renormalized

     Subspace diagonalization in iterative solution of the eigenvalue problem:
     a serial algorithm will be used

     bravais-lattice index     =            2
     lattice parameter (alat)  =      10.6392  a.u.
     unit-cell volume          =     301.0654 (a.u.)^3
     number of atoms/cell      =            2
     number of atomic types    =            2
     number of electrons       =        16.00
     number of Kohn-Sham states=            8
     kinetic-energy cutoff     =      60.0000  Ry
     charge density cutoff     =     244.0000  Ry
     scf convergence threshold =      1.0E-08
     mixing beta               =       0.7000
     number of iterations used =            8  plain     mixing
     energy convergence thresh.=      1.0E-04
     force convergence thresh. =      1.0E-03
     press convergence thresh. =      5.0E-01
     Exchange-correlation= SLA  PW   PBX  PBC
                           (   1   4   3   4   0   0   0)
     nstep                     =           50

     celldm(1)=  10.639150  celldm(2)=   0.000000  celldm(3)=   0.000000
     celldm(4)=   0.000000  celldm(5)=   0.000000  celldm(6)=   0.000000

     crystal axes: (cart. coord. in units of alat)
               a(1) = (  -0.500000   0.000000   0.500000 )
               a(2) = (   0.000000   0.500000   0.500000 )
               a(3) = (  -0.500000   0.500000   0.000000 )

     reciprocal axes: (cart. coord. in units 2 pi/alat)
               b(1) = ( -1.000000 -1.000000  1.000000 )
               b(2) = (  1.000000  1.000000  1.000000 )
               b(3) = ( -1.000000  1.000000 -1.000000 )

     PseudoPot. # 1 for Na read from file:
     ../../pseudopotentials/Na.pbe-spn-kjpaw_psl.1.0.0.UPF
     MD5 check sum: 2d3bf706d6c1b56787a12f8ec1fa0108
     Pseudo is Projector augmented-wave + core cor, Zval =  9.0
     Generated using &quot;atomic&quot; code by A. Dal Corso  v.6.3
     Shape of augmentation charge: PSQ
     Using radial grid of 1121 points,  4 beta functions with:
                l(1) =   0
                l(2) =   0
                l(3) =   1
                l(4) =   1
     Q(r) pseudized with 0 coefficients

     PseudoPot. # 2 for Cl read from file:
     ../../pseudopotentials/Cl.pbe-n-kjpaw_psl.1.0.0.UPF
     MD5 check sum: 742572be94a3d2fc30b29275f2c5bbd2
     Pseudo is Projector augmented-wave + core cor, Zval =  7.0
     Generated using &quot;atomic&quot; code by A. Dal Corso  v.6.3
     Shape of augmentation charge: PSQ
     Using radial grid of 1157 points,  6 beta functions with:
                l(1) =   0
                l(2) =   0
                l(3) =   1
                l(4) =   1
                l(5) =   2
                l(6) =   2
     Q(r) pseudized with 0 coefficients

     atomic species   valence    mass     pseudopotential
        Na             9.00    22.98977     Na( 1.00)
        Cl             7.00    35.45320     Cl( 1.00)

     48 Sym. Ops., with inversion, found

   Cartesian axes

     site n.     atom                  positions (alat units)
         1           Na  tau(   1) = (   0.0000000   0.0000000   0.0000000  )
         2           Cl  tau(   2) = (   0.5000000   0.0000000   0.0000000  )

     number of k points=    20
                       cart. coord. in units 2pi/alat
        k(    1) = (   0.0000000   0.0000000   0.0000000), wk =   0.0058309
        k(    2) = (  -0.1428571   0.1428571  -0.1428571), wk =   0.0466472
        k(    3) = (  -0.2857143   0.2857143  -0.2857143), wk =   0.0466472
        k(    4) = (  -0.4285714   0.4285714  -0.4285714), wk =   0.0466472
        k(    5) = (   0.0000000   0.2857143   0.0000000), wk =   0.0349854
        k(    6) = (  -0.1428571   0.4285714  -0.1428571), wk =   0.1399417
        k(    7) = (  -0.2857143   0.5714286  -0.2857143), wk =   0.1399417
        k(    8) = (   0.5714286  -0.2857143   0.5714286), wk =   0.1399417
        k(    9) = (   0.4285714  -0.1428571   0.4285714), wk =   0.1399417
        k(   10) = (   0.2857143  -0.0000000   0.2857143), wk =   0.0699708
        k(   11) = (   0.0000000   0.5714286   0.0000000), wk =   0.0349854
        k(   12) = (  -0.1428571   0.7142857  -0.1428571), wk =   0.1399417
        k(   13) = (   0.7142857  -0.1428571   0.7142857), wk =   0.1399417
        k(   14) = (   0.5714286   0.0000000   0.5714286), wk =   0.0699708
        k(   15) = (   0.0000000   0.8571429   0.0000000), wk =   0.0349854
        k(   16) = (   0.8571429  -0.0000000   0.8571429), wk =   0.0699708
        k(   17) = (  -0.2857143   0.5714286   0.0000000), wk =   0.1399417
        k(   18) = (   0.5714286  -0.2857143   0.8571429), wk =   0.2798834
        k(   19) = (   0.7142857  -0.1428571   1.0000000), wk =   0.1399417
        k(   20) = (   0.5714286   0.0000000   0.8571429), wk =   0.1399417

     Check: negative core charge=   -0.000006

     Initial potential from superposition of free atoms

     starting charge   15.99370, renormalised to   16.00000
     Starting wfcs are    9 randomized atomic wfcs
     Checking if some PAW data can be deallocated...

     Self-consistent Calculation

     iteration #  1     ecut=    60.00 Ry     beta= 0.70
     Davidson diagonalization with overlap
     ethr =  1.00E-02,  avg # of iterations =  1.0

     Threshold (ethr) on eigenvalues was too large:
     Diagonalizing with lowered threshold

     Davidson diagonalization with overlap
     ethr =  4.03E-04,  avg # of iterations =  3.0

     total energy              =    -188.82519758 Ry
     estimated scf accuracy    <       0.05315694 Ry

[...]

     End of self-consistent calculation

          k = 0.0000 0.0000 0.0000 (  2421 PWs)   bands (ev):

   -47.8977 -19.8092 -19.8092 -19.8092 -11.6645   1.0048   1.0048   1.0048

          k =-0.1429 0.1429-0.1429 (  2355 PWs)   bands (ev):

[...]

     highest occupied level (ev):     1.0048

!    total energy              =    -188.84426359 Ry

     total all-electron energy =     -1248.131279 Ry
     estimated scf accuracy    <          6.7E-09 Ry

     The total energy is the sum of the following terms:
     one-electron contribution =     -80.70370506 Ry
     hartree contribution      =      47.06281103 Ry
     xc contribution           =     -25.67636179 Ry
     ewald contribution        =     -68.92828969 Ry
     one-center paw contrib.   =     -60.59871809 Ry

     convergence has been achieved in   9 iterations

     Forces acting on atoms (cartesian axes, Ry/au):

     atom    1 type  1   force =     0.00000000    0.00000000    0.00000000
     atom    2 type  2   force =    -0.00000000   -0.00000000   -0.00000000

     Total force =     0.000000     Total SCF correction =     0.000000

     Computing stress (Cartesian axis) and pressure

          total   stress  (Ry/bohr**3)                   (kbar)     P=        2.49
   0.00001696  -0.00000000  -0.00000000            2.49       -0.00       -0.00
  -0.00000000   0.00001696   0.00000000           -0.00        2.49        0.00
  -0.00000000   0.00000000   0.00001696           -0.00        0.00        2.49

     BFGS Geometry Optimization
     Energy error            =      0.0E+00
     Gradient error          =      1.0E-33
     Cell gradient error     =      1.7E-05

     number of scf cycles    =   1
     number of bfgs steps    =   0

     enthalpy new            =    -188.8442635928 Ry

     new trust radius        =       0.0014711600 bohr
ibrav =      2
 celldm(1) =     10.64366031
Input lattice vectors:
    -0.50021197     0.00000000     0.50021197
    -0.00000000     0.50021197     0.50021197
    -0.50021197     0.50021197     0.00000000
New lattice vectors in INITIAL alat:
    -0.50021197     0.00000000     0.50021197
     0.00000000     0.50021197     0.50021197
    -0.50021197     0.50021197     0.00000000
New lattice vectors in NEW alat (for information only):
    -0.50000000     0.00000000     0.50000000
     0.00000000     0.50000000     0.50000000
    -0.50000000     0.50000000     0.00000000
Discrepancy in bohr =     0.000000    0.000000    0.000000
     new conv_thr            =       0.0000000100 Ry

     new unit-cell volume =    301.44843 a.u.^3 (    44.67005 Ang^3 )
     density =      2.17253 g/cm^3

CELL_PARAMETERS (alat= 10.63915000)
  -0.500211968   0.000000000   0.500211968
   0.000000000   0.500211968   0.500211968
  -0.500211968   0.500211968   0.000000000

ATOMIC_POSITIONS (alat)
Na            0.0000000000        0.0000000000        0.0000000000
Cl            0.5002119676        0.0000000000        0.0000000000

     Writing output data file ./tmp/NaCl.save/
     NEW-OLD atomic charge density approx. for the potential

     Check: negative core charge=   -0.000006
     extrapolated charge   16.02032, renormalised to   16.00000

[...]

     Energy error            =      5.8E-06
     Gradient error          =      0.0E+00
     Cell gradient error     =      1.5E-05

[...]

     enthalpy old            =    -188.8442635928 Ry
     enthalpy new            =    -188.8442694173 Ry

     CASE: enthalpy_new < enthalpy_old

     WARNING: bfgs curvature condition failed, Theta= 0.923
     new trust radius        =       0.0016186189 bohr
ibrav =      2
 celldm(1) =     10.64862165
Input lattice vectors:
    -0.50044513    -0.00000000     0.50044513
     0.00000000     0.50044513     0.50044513
    -0.50044513     0.50044513    -0.00000000
New lattice vectors in INITIAL alat:
    -0.50044513     0.00000000     0.50044513
     0.00000000     0.50044513     0.50044513
    -0.50044513     0.50044513     0.00000000
New lattice vectors in NEW alat (for information only):
    -0.50000000     0.00000000     0.50000000
     0.00000000     0.50000000     0.50000000
    -0.50000000     0.50000000     0.00000000
Discrepancy in bohr =     0.000000    0.000000    0.000000
     new conv_thr            =            1.0E-10 Ry

[...]

     number of scf cycles    =   4
     number of bfgs steps    =   3

     enthalpy old            =    -188.8442748315 Ry
     enthalpy new            =    -188.8442810213 Ry

     CASE: enthalpy_new < enthalpy_old

     new trust radius        =       0.0036440140 bohr
ibrav =      2
 celldm(1) =     10.66722668
Input lattice vectors:
    -0.50131950     0.00000000     0.50131950
    -0.00000000     0.50131950     0.50131950
    -0.50131950     0.50131950     0.00000000
New lattice vectors in INITIAL alat:
    -0.50131950     0.00000000     0.50131950
     0.00000000     0.50131950     0.50131950
    -0.50131950     0.50131950     0.00000000
New lattice vectors in NEW alat (for information only):
    -0.50000000     0.00000000     0.50000000
     0.00000000     0.50000000     0.50000000
    -0.50000000     0.50000000     0.00000000
Discrepancy in bohr =     0.000000    0.000000    0.000000
     new conv_thr            =            1.0E-10 Ry

     new unit-cell volume =    303.45520 a.u.^3 (    44.96742 Ang^3 )
     density =      2.15816 g/cm^3

[...]

ATOMIC_POSITIONS (alat)
Na            0.0000000000        0.0000000000        0.0000000000
Cl            0.5013194984        0.0000000000        0.0000000000

     Writing output data file ./tmp/NaCl.save/
     NEW-OLD atomic charge density approx. for the potential

     Check: negative core charge=   -0.000006
     extrapolated charge   16.05016, renormalised to   16.00000

[...]

     Energy error            =      5.0E-06
     Gradient error          =      1.2E-32
     Cell gradient error     =      2.6E-06

ibrav =      2
 celldm(1) =     10.66722668
Input lattice vectors:
    -0.50131950     0.00000000     0.50131950
     0.00000000     0.50131950     0.50131950
    -0.50131950     0.50131950     0.00000000
New lattice vectors in INITIAL alat:
    -0.50131950     0.00000000     0.50131950
     0.00000000     0.50131950     0.50131950
    -0.50131950     0.50131950     0.00000000
New lattice vectors in NEW alat (for information only):
    -0.50000000     0.00000000     0.50000000
     0.00000000     0.50000000     0.50000000
    -0.50000000     0.50000000     0.00000000
Discrepancy in bohr =     0.000000    0.000000    0.000000

     bfgs converged in   5 scf cycles and   4 bfgs steps
     (criteria: energy <  1.0E-04 Ry, force <  1.0E-03Ry/Bohr, cell <  5.0E-01kbar)

     End of BFGS Geometry Optimization

     Final enthalpy =    -188.8442860074 Ry

     File ./tmp/NaCl.bfgs deleted, as requested
Begin final coordinates
     new unit-cell volume =    303.45520 a.u.^3 (    44.96742 Ang^3 )
     density =      2.15816 g/cm^3

CELL_PARAMETERS (alat= 10.63915000)
  -0.501319498   0.000000000   0.501319498
   0.000000000   0.501319498   0.501319498
  -0.501319498   0.501319498   0.000000000

ATOMIC_POSITIONS (alat)
Na            0.0000000000        0.0000000000        0.0000000000
Cl            0.5013194984        0.0000000000        0.0000000000
End final coordinates

     Writing output data file ./tmp/NaCl.save/

     Final scf calculation at the relaxed structure.
     The G-vectors are recalculated for the final unit cell
     Results may differ from those at the preceding step.

     bravais-lattice index     =            2
     lattice parameter (alat)  =      10.6392  a.u.
     unit-cell volume          =     303.4552 (a.u.)^3
     number of atoms/cell      =            2
     number of atomic types    =            2
     number of electrons       =        16.00
     number of Kohn-Sham states=            8
     kinetic-energy cutoff     =      60.0000  Ry
     charge density cutoff     =     244.0000  Ry
     scf convergence threshold =      1.0E-10
     mixing beta               =       0.7000
     number of iterations used =            8  plain     mixing
     press convergence thresh. =      5.0E-01
     Exchange-correlation= SLA  PW   PBX  PBC
                           (   1   4   3   4   0   0   0)

     celldm(1)=  10.639150  celldm(2)=   0.000000  celldm(3)=   0.000000
     celldm(4)=   0.000000  celldm(5)=   0.000000  celldm(6)=   0.000000

     crystal axes: (cart. coord. in units of alat)
               a(1) = (  -0.501319   0.000000   0.501319 )
               a(2) = (   0.000000   0.501319   0.501319 )
               a(3) = (  -0.501319   0.501319   0.000000 )

     reciprocal axes: (cart. coord. in units 2 pi/alat)
               b(1) = ( -0.997368 -0.997368  0.997368 )
               b(2) = (  0.997368  0.997368  0.997368 )
               b(3) = ( -0.997368  0.997368 -0.997368 )

     PseudoPot. # 1 for Na read from file:
     ../../pseudopotentials/Na.pbe-spn-kjpaw_psl.1.0.0.UPF
     MD5 check sum: 2d3bf706d6c1b56787a12f8ec1fa0108
     Pseudo is Projector augmented-wave + core cor, Zval =  9.0
     Generated using &quot;atomic&quot; code by A. Dal Corso  v.6.3
     Shape of augmentation charge: PSQ
     Using radial grid of 1121 points,  4 beta functions with:
                l(1) =   0
                l(2) =   0
                l(3) =   1
                l(4) =   1
     Q(r) pseudized with 0 coefficients

     PseudoPot. # 2 for Cl read from file:
     ../../pseudopotentials/Cl.pbe-n-kjpaw_psl.1.0.0.UPF
     MD5 check sum: 742572be94a3d2fc30b29275f2c5bbd2
     Pseudo is Projector augmented-wave + core cor, Zval =  7.0
     Generated using &quot;atomic&quot; code by A. Dal Corso  v.6.3
     Shape of augmentation charge: PSQ
     Using radial grid of 1157 points,  6 beta functions with:
                l(1) =   0
                l(2) =   0
                l(3) =   1
                l(4) =   1
                l(5) =   2
                l(6) =   2
     Q(r) pseudized with 0 coefficients

     atomic species   valence    mass     pseudopotential
        Na             9.00    22.98977     Na( 1.00)
        Cl             7.00    35.45320     Cl( 1.00)

     48 Sym. Ops., with inversion, found

   Cartesian axes

     site n.     atom                  positions (alat units)
         1           Na  tau(   1) = (   0.0000000   0.0000000   0.0000000  )
         2           Cl  tau(   2) = (   0.5013195   0.0000000   0.0000000  )

     number of k points=    20
                       cart. coord. in units 2pi/alat
        k(    1) = (   0.0000000   0.0000000   0.0000000), wk =   0.0058309
        k(    2) = (  -0.1424811   0.1424811  -0.1424811), wk =   0.0466472
        k(    3) = (  -0.2849623   0.2849623  -0.2849623), wk =   0.0466472
        k(    4) = (  -0.4274434   0.4274434  -0.4274434), wk =   0.0466472
        k(    5) = (   0.0000000   0.2849623   0.0000000), wk =   0.0349854
        k(    6) = (  -0.1424811   0.4274434  -0.1424811), wk =   0.1399417
        k(    7) = (  -0.2849623   0.5699245  -0.2849623), wk =   0.1399417
        k(    8) = (   0.5699245  -0.2849623   0.5699245), wk =   0.1399417
        k(    9) = (   0.4274434  -0.1424811   0.4274434), wk =   0.1399417
        k(   10) = (   0.2849623  -0.0000000   0.2849623), wk =   0.0699708
        k(   11) = (   0.0000000   0.5699245   0.0000000), wk =   0.0349854
        k(   12) = (  -0.1424811   0.7124057  -0.1424811), wk =   0.1399417
        k(   13) = (   0.7124057  -0.1424811   0.7124057), wk =   0.1399417
        k(   14) = (   0.5699245   0.0000000   0.5699245), wk =   0.0699708
        k(   15) = (   0.0000000   0.8548868   0.0000000), wk =   0.0349854
        k(   16) = (   0.8548868   0.0000000   0.8548868), wk =   0.0699708
        k(   17) = (  -0.2849623   0.5699245   0.0000000), wk =   0.1399417
        k(   18) = (   0.5699245  -0.2849623   0.8548868), wk =   0.2798834
        k(   19) = (   0.7124057  -0.1424811   0.9973679), wk =   0.1399417
        k(   20) = (   0.5699245   0.0000000   0.8548868), wk =   0.1399417

     Check: negative core charge=   -0.000006

     Initial potential from superposition of free atoms

     starting charge   15.99370, renormalised to   16.00000
     Starting wfcs are    9 randomized atomic wfcs
     Checking if some PAW data can be deallocated...

     Self-consistent Calculation

[...]

     total energy              =    -188.84439155 Ry
     estimated scf accuracy    <          1.3E-09 Ry

     iteration # 13     ecut=    60.00 Ry     beta= 0.70
     Davidson diagonalization with overlap
     ethr =  1.38E-12,  avg # of iterations =  5.0

     End of self-consistent calculation

[...]

          k =-0.2850 0.5699 0.0000 (  2375 PWs)   bands (ev):

[...]

          k = 0.5699 0.0000 0.8549 (  2379 PWs)   bands (ev):

   -47.9697 -19.8967 -19.8960 -19.8891 -11.3157  -0.3069  -0.2439   0.3340

     highest occupied level (ev):     0.9455

!    total energy              =    -188.84439155 Ry

     total all-electron energy =     -1248.131407 Ry
     estimated scf accuracy    <          1.1E-11 Ry

     The total energy is the sum of the following terms:
     one-electron contribution =     -80.99680104 Ry
     hartree contribution      =      47.17102695 Ry
     xc contribution           =     -25.67328463 Ry
     ewald contribution        =     -68.74686693 Ry
     one-center paw contrib.   =     -60.59846590 Ry

     convergence has been achieved in  13 iterations

     Forces acting on atoms (cartesian axes, Ry/au):

     atom    1 type  1   force =    -0.00000000    0.00000000   -0.00000000
     atom    2 type  2   force =    -0.00000000   -0.00000000    0.00000000

     Total force =     0.000000     Total SCF correction =     0.000000

     Computing stress (Cartesian axis) and pressure

          total   stress  (Ry/bohr**3)                   (kbar)     P=        0.27
   0.00000183  -0.00000000  -0.00000000            0.27       -0.00       -0.00
  -0.00000000   0.00000183   0.00000000           -0.00        0.27        0.00
  -0.00000000   0.00000000   0.00000183           -0.00        0.00        0.27

     Writing output data file ./tmp/NaCl.save/

     General routines

     Parallel routines

   This run was terminated on:  14:41:38  12Nov2022

   JOB DONE.